Version identifier: 12.10.0.0 | 2019-11-26 | 843d4de
CPXPARAM_WorkMem                                 28672
Tried aggregator 2 times.
MIP Presolve modified 110 coefficients.
Aggregator did 45 substitutions.
Reduced MIP has 245 rows, 300 columns, and 1155 nonzeros.
Reduced MIP has 300 binaries, 0 generals, 0 SOSs, and 0 indicators.
Presolve time = 0,00 sec. (1,60 ticks)
Found incumbent of value 1345,000000 after 0,00 sec. (2,49 ticks)
Probing time = 0,00 sec. (0,45 ticks)
Tried aggregator 1 time.
Detecting symmetries...
MIP Presolve eliminated 55 rows and 0 columns.
MIP Presolve added 110 rows and 0 columns.
Reduced MIP has 300 rows, 300 columns, and 1210 nonzeros.
Reduced MIP has 300 binaries, 0 generals, 0 SOSs, and 0 indicators.
Presolve time = 0,00 sec. (1,53 ticks)
Probing time = 0,00 sec. (0,43 ticks)
Clique table members: 795.
MIP emphasis: balance optimality and feasibility.
MIP search method: dynamic search.
Parallel mode: deterministic, using up to 16 threads.
Root relaxation solution time = 0,00 sec. (2,85 ticks)

        Nodes                                         Cuts/
   Node  Left     Objective  IInf  Best Integer    Best Bound    ItCnt     Gap

*     0+    0                         1345,0000        0,0000           100,00%
*     0+    0                          717,0000        0,0000           100,00%
      0     0      327,6667   224      717,0000      327,6667      250   54,30%
      0     0      328,3779   224      717,0000     Cuts: 104      336   54,20%
*     0+    0                          706,0000      328,3779            53,49%
      0     0      333,8260   224      706,0000     Cuts: 175      431   52,72%
      0     0      336,1182   224      706,0000      Cuts: 99      487   52,39%
      0     0      340,8887   224      706,0000     Cuts: 139      574   51,72%
*     0+    0                          695,0000      340,8887            50,95%
      0     0      343,4903   224      695,0000     Cuts: 155      661   50,58%
      0     0      364,0263   224      695,0000     Cuts: 162      834   47,62%
*     0+    0                          626,0000      364,0263            41,85%
      0     0      368,3122   224      626,0000     Cuts: 106      959   40,42%
      0     0      372,1857   224      626,0000     Cuts: 115     1072   40,42%
      0     0      374,3155   224      626,0000      Cuts: 86     1171   40,21%
      0     0      376,5087   224      626,0000     Cuts: 134     1275   39,85%
      0     0      377,9252   224      626,0000      Cuts: 82     1377   39,63%
      0     0      378,4137   224      626,0000      Cuts: 80     1471   39,55%
      0     0      379,1089   224      626,0000      Cuts: 75     1599   39,44%
      0     0      380,3646   224      626,0000      Cuts: 65     1729   35,57%
      0     0      386,5355   224      626,0000      Cuts: 74     1935   35,57%
      0     0      388,7743   224      626,0000     Cuts: 116     2080   35,57%
      0     0      390,2217   224      626,0000      Cuts: 80     2203   35,57%
      0     2      390,2217   286      626,0000      403,3333     2203   35,57%
Elapsed time = 0,49 sec. (334,51 ticks, tree = 0,02 MB, solutions = 5)
   2896  1509        cutoff            626,0000      528,4060   105329   15,59%
   6594  2746      620,6852   137      626,0000      568,0037   227800    9,26%

Performing restart 1

Repeating presolve.
Tried aggregator 1 time.
MIP Presolve eliminated 14 rows and 14 columns.
MIP Presolve added 8 rows and 0 columns.
MIP Presolve modified 4 coefficients.
Reduced MIP has 294 rows, 286 columns, and 1126 nonzeros.
Reduced MIP has 286 binaries, 0 generals, 0 SOSs, and 0 indicators.
Presolve time = 0,00 sec. (1,05 ticks)
Tried aggregator 1 time.
Reduced MIP has 294 rows, 286 columns, and 1126 nonzeros.
Reduced MIP has 286 binaries, 0 generals, 0 SOSs, and 0 indicators.
Presolve time = 0,00 sec. (0,95 ticks)
Represolve time = 0,02 sec. (11,75 ticks)
   6614     0      401,4937   286      626,0000      Cuts: 70   246001    8,63%
   6614     0      405,8291   286      626,0000      Cuts: 66   246153    8,63%
   6614     0      408,1112   286      626,0000      Cuts: 73   246277    8,63%
   6614     0      409,4715   286      626,0000      Cuts: 63   246389    8,63%
   6614     0      410,4500   286      626,0000      Cuts: 69   246506    8,63%
   6614     2      410,4500   286      626,0000      571,9983   246506    8,63%
   7072   100        cutoff            626,0000      571,9983   258931    8,63%
   8173   720      603,8866   114      626,0000      571,9983   313213    8,63%
   9361  1714      614,0092   205      626,0000      571,9983   375435    8,63%
  10638  2639      518,1712   243      626,0000      571,9983   425240    8,63%
  12311  3911      563,1473   209      626,0000      571,9983   491908    8,63%
  13664  4801      537,6613   215      626,0000      571,9983   540921    8,63%

Performing restart 2

Repeating presolve.
Tried aggregator 1 time.
Reduced MIP has 294 rows, 286 columns, and 1126 nonzeros.
Reduced MIP has 286 binaries, 0 generals, 0 SOSs, and 0 indicators.
Presolve time = 0,00 sec. (0,67 ticks)
Tried aggregator 1 time.
Reduced MIP has 294 rows, 286 columns, and 1126 nonzeros.
Reduced MIP has 286 binaries, 0 generals, 0 SOSs, and 0 indicators.
Presolve time = 0,00 sec. (0,95 ticks)
Represolve time = 0,02 sec. (16,85 ticks)
  14985     0      413,3192   286      626,0000      Cuts: 37   621052    8,63%
  14985     0      414,0493   286      626,0000      Cuts: 18   621151    8,63%
  14985     0      414,3581   286      626,0000      Cuts: 51   621239    8,63%
  14985     0      414,7392   286      626,0000      Cuts: 34   621330    8,63%
  14985     0      415,1268   286      626,0000      Cuts: 52   621408    8,63%
  14985     0      415,2742   286      626,0000      Cuts: 29   621480    8,63%
  14985     0      415,6505   286      626,0000      Cuts: 37   621571    8,63%
  15515   327      611,2149    30      626,0000      571,9983   635710    8,63%
Elapsed time = 4,23 sec. (3657,52 ticks, tree = 0,12 MB, solutions = 5)
  24379  1962        cutoff            626,0000      599,5278  1056113    4,23%

Clique cuts applied:  15
Cover cuts applied:  271
Flow cuts applied:  9
Mixed integer rounding cuts applied:  136
Zero-half cuts applied:  80
Lift and project cuts applied:  43
Gomory fractional cuts applied:  13

Root node processing (before b&c):
  Real time             =    0,48 sec. (334,09 ticks)
Parallel b&c, 16 threads:
  Real time             =    5,28 sec. (4379,87 ticks)
  Sync time (average)   =    1,13 sec.
  Wait time (average)   =    0,01 sec.
                          ------------
Total (root+branch&cut) =    5,76 sec. (4713,96 ticks)
